NAME : P = NP
TYPE : TSP
DIMENSION : 48
EDGE_WEIGHT_TYPE : EUC_2D
NODE_COORD_SECTION
0 381 273
1 164 379
2 21 677
3 23 9
4 64 84
5 215 224
6 88 292
7 517 60
8 174 249
9 372 16
10 89 93
11 382 53
12 617 4
13 228 56
14 140 253
15 768 572
16 520 121
17 126 43
18 21 0
19 51 65
20 207 317
21 182 228
22 2 294
23 83 500
24 108 458
25 186 567
26 408 290
27 541 22
28 26 166
29 686 136
30 522 78
31 315 885
32 592 443
33 3 321
34 249 53
35 51 360
36 376 380
37 10 847
38 68 260
39 445 97
40 341 44
41 663 10
42 193 344
43 277 195
44 501 55
45 329 51
46 154 228
47 47 185